c 1 Antipasto
c 2 Beverage
c 3 Espresso
c 4 Fizz
c 5 Cheese
c 6 Gouda
c 7 Havarti
c 8 Dips
p cnf 8 14
1 0
-2 1 0
-3 2 0
-4 2 0
-2 3 4 0
-5 1 0
-6 5 0
-7 5 0
-5 6 7 0
-7 -6 0
-8 1 0
-8 0
-5 3 0
-3 5 0
